c turning on binary mode checking
c parsing input formula with 259840 variables and 1039934 clauses
c finished parsing, read 23413948 bytes from proof file
c detected empty clause; start verification via backward checking
c 9017 of 1039934 clauses in core                            
c 11090 of 604199 lemmas in core using 58308 resolution steps
c 0 RAT lemmas in core; 360 redundant literals in core lemmas
s VERIFIED
c verification time: 2.649 seconds
